VALUE 1885
31 126
33 170
37 177
45 281
60 140
66 149
73 133
81 232
111 259
126 177
81 128
133 249
140 226
60 150
163 212
164 193
128 167
73 170
31 172
177 206
33 181
185 237
193 249
150 199
206 211
150 210
181 211
140 212
185 226
172 232
164 237
210 239
66 249
163 259
37 281

